p cnf 27 44
22 0
-1 23 0
-23 1 0
-3 24 0
-24 3 0
-5 25 0
-25 5 0
-6 26 0
-26 6 0
-7 27 0
-27 7 0
-2 -1 0
1 2 0
-4 -3 0
3 4 0
-8 2 0
-8 4 0
-2 -4 8 0
-9 8 0
-9 7 0
-8 -7 9 0
-10 -8 0
8 10 0
-11 2 0
-11 6 0
-2 -6 11 0
-12 1 0
-12 5 0
-1 -5 12 0
-13 11 12 0
-11 13 0
-12 13 0
-14 10 0
-14 13 0
-10 -13 14 0
-15 9 14 0
-9 15 0
-14 15 0
-16 3 0
-16 6 0
-3 -6 16 0
-17 4 0
-17 7 0
-4 -7 17 0
